(set-logic BV) (define-fun origCir ((n199 Bool) (n187 Bool) (n183 Bool) (n178 Bool)) Bool (and (not (and n199 (and n183 n178))) (not (and n187 (not (and n183 n178)))))) (synth-fun skel ((n199 Bool) (n187 Bool) (n183 Bool) (n178 Bool)) Bool) (declare-var n199 Bool) (declare-var n187 Bool) (declare-var n183 Bool) (declare-var n178 Bool) (constraint (= (origCir n199 n187 n183 n178) (skel n199 n187 n183 n178))) (check-synth)
